p cnf 7230 17
-6741 -6742 0
-5555 -6667 -6739 0
-5285 -6665 -6737 0
-6621 -6689 -6735 0
5555 -6740 0
5285 -6738 0
6621 -6736 0
6739 6740 0
6737 6738 0
6735 6736 0
6667 -6740 0
6665 -6738 0
6689 -6736 0
-4288 -6707 6742 0
6733 6734 0
6707 -6742 0
4288 -6742 0
